002 001 001 000 000 000 000 003 009 009 007 007 010 007 006 004 005 004 005 008 007 007 007 005 005 004 007 005 007 009 011
002 002 002 000 001 001 001 003 006 013 008 006 007 005 006 004 004 002 002 003 003 003 003 003 002 004 003 004 006 007 010
002 002 001 000 001 001 001 003 005 006 008 005 006 003 004 004 003 002 001 001 001 002 002 003 001 002 002 003 004 004 006
002 002 002 001 001 001 002 002 006 010 009 006 004 003 003 005 002 001 001 001 002 001 001 003 002 001 002 003 004 005 005
002 002 002 002 001 001 002 004 009 008 009 005 003 004 004 004 002 001 001 001 001 000 001 002 003 001 002 003 004 005 004
004 004 002 002 001 001 001 003 007 005 005 004 003 003 003 002 002 002 001 001 001 001 001 002 002 002 002 004 006 006 004
003 004 007 003 001 001 001 002 005 003 003 004 005 006 003 001 001 002 002 001 001 001 000 001 001 002 003 005 007 013 009
005 007 012 004 002 002 002 002 002 002 006 007 008 003 002 000 000 002 003 001 001 002 001 001 001 002 003 006 007 023 009
010 009 010 006 003 004 004 005 002 002 005 011 011 001 001 000 000 001 003 001 001 001 001 001 002 001 003 006 016 018 013
008 012 006 004 004 003 003 003 003 001 003 009 007 001 000 000 001 002 002 001 001 001 001 000 001 002 001 005 017 028 019
005 014 008 003 003 001 000 002 002 000 001 003 005 001 001 001 001 002 001 001 001 001 001 000 000 001 001 005 016 027 018
002 002 009 006 001 001 001 000 000 000 000 001 000 000 001 001 001 001 001 001 001 001 001 000 000 001 001 003 011 021 024
000 001 006 003 000 001 000 000 000 000 000 001 001 001 002 001 001 001 000 000 001 001 -99 000 000 000 001 003 010 027 038
000 001 004 001 000 000 000 000 000 000 000 000 001 001 001 002 001 001 000 000 001 001 000 000 000 002 001 005 020 039 042
001 000 001 001 001 001 000 000 000 000 000 001 002 002 003 003 003 001 001 000 001 001 000 000 000 002 001 004 016 040 026
000 000 000 001 001 001 001 000 000 000 000 001 002 002 004 005 005 002 001 001 004 002 001 001 000 002 001 005 019 022 012
000 000 001 001 001 002 001 000 000 000 000 001 001 005 008 010 008 007 004 003 001 001 002 002 001 002 001 003 008 010 004
000 000 000 002 001 003 002 000 000 000 000 000 001 005 014 016 015 015 017 009 003 003 004 002 001 001 001 003 005 009 004
000 000 000 001 001 002 001 000 000 001 000 001 001 007 012 018 015 017 016 011 021 003 003 002 001 001 002 004 004 004 003
000 000 000 000 000 000 000 001 007 002 001 001 002 008 007 010 007 017 013 010 012 004 002 002 -99 001 003 005 005 002 004
000 000 000 000 000 000 001 002 016 004 002 001 003 008 005 005 006 008 006 006 009 003 001 002 -99 002 002 005 005 -99 -99
000 000 000 000 000 000 002 006 011 004 002 002 005 010 004 002 003 005 004 005 005 002 001 002 -99 002 002 005 005 -99 -99
000 000 000 000 000 000 002 006 005 003 002 002 008 006 003 001 001 002 002 003 002 001 002 -99 -99 -99 -99 -99 -99 -99 -99
000 000 000 000 000 000 001 004 005 004 006 004 004 002 001 000 001 001 002 002 002 002 002 -99 -99 -99 -99 -99 -99 -99 -99
000 000 000 000 000 000 000 002 004 005 012 007 005 003 001 000 001 000 002 003 003 006 002 004 -99 -99 -99 -99 -99 -99 -99
000 000 000 000 000 000 000 000 002 005 006 012 006 004 001 001 001 000 001 003 003 010 002 004 -99 -99 -99 -99 -99 -99 -99
000 001 000 000 000 000 000 000 001 003 004 004 003 002 002 003 001 000 001 001 003 004 002 006 006 -99 -99 013 006 003 -99
002 002 000 000 000 001 001 001 001 002 003 002 002 001 002 003 000 000 000 000 001 002 001 005 005 029 018 019 010 002 000
002 003 001 000 000 001 002 001 000 002 002 002 002 001 001 001 000 000 000 000 000 001 -99 003 006 022 012 017 012 004 001
001 002 001 001 000 001 002 002 000 002 002 001 001 000 000 000 000 000 000 000 000 000 003 002 003 011 008 016 018 014 004
000 001 001 000 000 000 003 001 001 001 001 000 000 000 000 000 000 000 000 000 000 000 001 001 002 007 004 015 024 021 007
000 001 001 000 000 000 002 001 001 000 000 000 000 000 001 000 000 000 000 000 000 000 000 001 003 003 003 010 025 017 013
000 001 000 000 000 000 000 000 000 000 000 000 000 001 004 001 001 002 001 000 001 001 000 000 002 003 003 012 036 019 023
000 001 001 000 000 000 000 000 000 000 001 001 001 002 008 005 003 005 002 001 001 001 000 000 001 002 001 009 042 022 039
000 003 002 001 000 000 000 000 000 001 003 006 003 002 009 003 004 003 004 001 000 000 000 001 001 001 001 011 035 021 039
001 003 002 001 000 001 000 000 000 004 004 008 004 003 010 006 004 002 002 002 000 000 000 000 000 000 002 023 021 026 030
001 002 002 001 001 001 000 000 002 004 006 007 007 006 006 005 002 001 003 002 000 000 000 000 000 000 001 010 021 035 023
000 000 000 000 001 001 000 001 005 010 010 010 008 011 008 005 002 001 001 000 000 001 000 000 000 000 001 014 025 033 021
000 000 000 000 000 000 001 001 003 014 014 011 011 011 009 005 002 001 000 000 000 001 000 000 000 000 000 008 016 039 033
000 000 000 000 000 000 001 000 001 007 007 007 006 013 005 004 002 001 000 000 001 000 000 000 000 000 001 005 027 053 041
000 000 000 000 000 000 000 000 000 002 004 008 006 007 004 003 001 001 001 000 001 000 000 000 000 000 000 006 040 072 039
000 000 000 000 000 000 000 000 000 001 001 002 006 005 002 001 001 002 002 001 001 000 000 000 000 000 001 020 034 035 025
000 000 000 000 -99 000 000 000 000 000 001 002 002 001 002 001 001 004 003 002 002 000 001 000 000 000 002 028 050 078 041
000 000 000 000 -99 000 000 000 000 000 000 001 001 001 001 001 001 003 003 003 003 001 005 002 000 001 004 024 047 090 026
000 000 000 000 -99 -99 -99 000 000 000 001 002 001 000 000 000 000 001 003 004 005 003 004 002 003 000 001 016 060 075 009
000 000 000 000 -99 -99 000 000 000 000 001 001 002 000 000 000 000 001 002 003 002 002 001 003 005 000 001 006 044 022 006
000 000 000 000 -99 000 000 000 000 000 001 001 001 000 000 000 000 000 001 001 002 001 000 007 003 000 001 005 014 011 006
000 000 000 000 000 000 000 000 000 000 000 000 000 000 000 000 000 000 000 000 001 000 000 001 000 001 000 003 003 005 004
001 000 000 000 000 000 000 000 001 001 000 000 000 000 000 000 000 000 000 000 001 001 000 000 000 001 000 001 001 001 002
001 000 000 000 000 000 000 001 002 002 005 002 000 000 000 000 000 000 000 000 000 000 000 000 000 000 000 000 000 000 002
000 000 000 000 000 000 000 001 001 004 012 003 000 001 000 000 000 000 000 000 000 000 000 -99 000 000 003 003 000 001 001
000 000 000 000 000 000 000 000 001 005 007 003 003 002 001 001 001 000 000 000 000 000 000 -99 -99 000 011 005 000 000 001
000 000 000 000 000 000 000 000 000 003 002 001 003 002 005 007 003 001 000 001 000 000 -99 -99 000 002 003 001 000 000 000
000 000 000 000 000 000 000 000 000 000 001 002 002 001 006 006 007 003 004 001 001 000 000 000 000 000 001 000 000 -99 -99
000 000 000 000 000 -99 -99 000 000 000 000 000 000 001 004 008 015 011 019 004 001 000 000 000 000 000 001 000 000 -99 -99
